p wcnf 114 228 229 
1 -14 -75 0 
1 63 -107 0 
1 66 57 0 
1 -43 60 0 
1 49 -84 0 
1 73 -91 0 
1 -73 -3 0 
1 -114 -10 0 
1 -83 -77 0 
1 109 20 0 
1 -86 113 0 
1 17 51 0 
1 69 80 0 
1 10 94 0 
1 18 -45 0 
1 -65 -30 0 
1 106 -71 0 
1 -59 -86 0 
1 5 -10 0 
1 -6 69 0 
1 85 -87 0 
1 73 -52 0 
1 77 35 0 
1 65 88 0 
1 78 21 0 
1 -30 -97 0 
1 -78 -83 0 
1 -59 -54 0 
1 90 105 0 
1 37 5 0 
1 -86 -111 0 
1 83 8 0 
1 -8 64 0 
1 46 73 0 
1 47 -43 0 
1 -56 41 0 
1 -37 -21 0 
1 -29 75 0 
1 -3 -109 0 
1 -109 -49 0 
1 58 23 0 
1 -33 100 0 
1 -61 91 0 
1 -104 -58 0 
1 -91 -44 0 
1 79 64 0 
1 -73 69 0 
1 16 -111 0 
1 51 -53 0 
1 57 -74 0 
1 -6 -22 0 
1 34 72 0 
1 4 19 0 
1 61 10 0 
1 52 -42 0 
1 -1 42 0 
1 -45 -48 0 
1 24 -107 0 
1 95 -113 0 
1 99 93 0 
1 68 -15 0 
1 -59 -14 0 
1 34 -99 0 
1 -85 -20 0 
1 -8 13 0 
1 -76 34 0 
1 -73 -57 0 
1 42 -20 0 
1 -49 -11 0 
1 -112 10 0 
1 92 46 0 
1 22 27 0 
1 -71 -9 0 
1 -6 -106 0 
1 -106 35 0 
1 92 81 0 
1 62 74 0 
1 40 58 0 
1 -99 68 0 
1 95 -74 0 
1 100 -71 0 
1 -35 80 0 
1 55 47 0 
1 80 -8 0 
1 -73 -2 0 
1 10 90 0 
1 6 -53 0 
1 -110 -22 0 
1 36 45 0 
1 13 38 0 
1 83 -54 0 
1 -77 -5 0 
1 62 -18 0 
1 111 100 0 
1 -93 -100 0 
1 -58 -61 0 
1 43 89 0 
1 2 -114 0 
1 -54 72 0 
1 -66 -111 0 
1 -6 -38 0 
1 -111 110 0 
1 -36 -105 0 
1 -76 34 0 
1 65 30 0 
1 43 -85 0 
1 -21 -113 0 
1 60 -17 0 
1 -83 -42 0 
1 52 50 0 
1 -19 -11 0 
1 -50 -41 0 
1 -103 74 0 
1 49 -24 0 
1 -28 -83 0 
1 -77 -9 0 
1 -35 -33 0 
1 -94 -23 0 
1 17 36 0 
1 -58 98 0 
1 12 -3 0 
1 -101 58 0 
1 90 3 0 
1 58 44 0 
1 -79 29 0 
1 -106 111 0 
1 57 70 0 
1 108 79 0 
1 54 -14 0 
1 9 63 0 
1 28 9 0 
1 62 -59 0 
1 -114 15 0 
1 -43 15 0 
1 65 -10 0 
1 -11 41 0 
1 -93 -90 0 
1 103 -60 0 
1 -98 89 0 
1 112 -8 0 
1 48 70 0 
1 -41 -15 0 
1 -16 -88 0 
1 108 60 0 
1 71 65 0 
1 86 104 0 
1 -14 1 0 
1 -10 -108 0 
1 35 54 0 
1 9 107 0 
1 25 7 0 
1 -37 77 0 
1 53 81 0 
1 113 81 0 
1 1 71 0 
1 101 93 0 
1 -113 -84 0 
1 -101 33 0 
1 -32 -82 0 
1 -85 99 0 
1 -91 -69 0 
1 -8 -31 0 
1 -35 79 0 
1 -82 40 0 
1 46 66 0 
1 -55 -24 0 
1 -63 47 0 
1 -39 -45 0 
1 85 -20 0 
1 -26 -15 0 
1 36 -91 0 
1 -41 105 0 
1 40 19 0 
1 92 -85 0 
1 -35 34 0 
1 71 82 0 
1 111 -110 0 
1 -10 19 0 
1 71 46 0 
1 -30 51 0 
1 -49 16 0 
1 59 -89 0 
1 61 10 0 
1 84 99 0 
1 -87 -102 0 
1 -17 -83 0 
1 -32 -55 0 
1 20 -91 0 
1 -72 106 0 
1 56 109 0 
1 56 -27 0 
1 9 8 0 
1 -47 -63 0 
1 30 107 0 
1 11 29 0 
1 -96 82 0 
1 31 18 0 
1 11 49 0 
1 -40 -112 0 
1 -1 -52 0 
1 -107 36 0 
1 91 16 0 
1 56 24 0 
1 -18 -89 0 
1 69 29 0 
1 59 -97 0 
1 105 74 0 
1 -44 -87 0 
1 -82 102 0 
1 -58 70 0 
1 -39 -93 0 
1 -56 -25 0 
1 -33 -19 0 
1 -77 -113 0 
1 -3 -26 0 
1 -89 50 0 
1 98 -35 0 
1 -45 53 0 
1 -75 -106 0 
1 3 45 0 
1 -111 10 0 
1 -18 86 0 
1 45 66 0 
1 -39 112 0 
1 40 -7 0 
1 -42 -31 0 
1 46 107 0 
1 -4 -2 0 
